(set-logic ALL)
(declare-const BAV1 Bool)
(declare-const BAV2 Bool)
(declare-const BAV3 Bool)
(declare-const BAV4 Bool)
(declare-const BAV5 Bool)
(declare-const BAV6 Bool)
(declare-const BAV7 Bool)
(declare-const BAV8 Bool)
(declare-const BAV9 Bool)
(declare-sort U 0)
(declare-fun f (U) U)
(declare-fun a () U)
(declare-fun b () U)
(declare-fun c () U)
(declare-fun d () U)
(assert (= (not (= (f a) d)) (not (= d (f b)))))
(assert (or (not (= (f a) d)) (not (= d (f b)))))
(assert (or (= (f a) d) (= d (f b))))
(assert (= BAV1 (= (not (= (f a) d)) (not (= d (f b))))))
(assert (= BAV2 (= (f a) d)))
(assert (= BAV3 (= d (f b))))
(assert (= BAV4 (or (not (= (f a) d)) (not (= d (f b))))))
(assert (= BAV5 (= (f a) d)))
(assert (= BAV6 (= d (f b))))
(assert (= BAV7 (or (= (f a) d) (= d (f b)))))
(assert (= BAV8 (= (f a) d)))
(assert (= BAV9 (= d (f b))))
(check-sat)
(get-model)